7
38
57
75
27
34
63
64
6
41
77
72
4
70
37
20
69
80
68
10
28
56
98
95
21
52
91
54
74
87
65
58
81
47
79
59
40
66
33
94
0
76
35
42
43
45
48
11
86
16
92
24
17
53
96
50
73
36
62
18
8
60
30
89
90
3
23
83
32
61
82
26
55
12
5
93
1
84
13
85
88
9
31
25
99
44
51
67
2
15
78
71
97
46
19
29
49
22
39
